%nproc=4
%chk=put_cargas.chk
#P HF/6-31G* POP(MK) IOP(6/33=2) scf=direct Test geom=allcheck guess=read

Calculo de cargas de putrescina

2 1  
N   3.159176    0.251786    0.001764
N  -3.159178   -0.251842   -0.002870
C   0.656318    0.402485   -0.001849
C  -0.656319   -0.402547    0.000422
C   1.866910   -0.531467    0.003211
C  -1.866908    0.531403   -0.005386
H   0.689404    1.048277    0.871699
H   0.691036    1.040759   -0.880844
H  -0.691215   -1.040440    0.879685
H  -0.689229   -1.048720   -0.872854
H   1.896116   -1.156089    0.885183
H   1.898208   -1.162818   -0.873881
H  -1.896257    1.155050   -0.888041
H  -1.898058    1.163723    0.871015
H   3.248144    0.841678   -0.815030
H   3.958807   -0.369207    0.004204
H   3.246963    0.846564    0.815133
H  -3.958806    0.369151   -0.006107
H  -3.248122   -0.840658    0.814701
H  -3.246992   -0.847690   -0.815454
