%chk=put_opt.chk
%nproc=4
#P OPT HF/6-31G** pop=NPA

Optimizacion de estructura de putrescina

2 1
N    3.1009    0.2467    0.0020 
N   -3.1007   -0.2475   -0.0135 
C    0.6574    0.3904   -0.0035 
C   -0.6573   -0.3896    0.0274
C    1.8518   -0.5521   -0.0137
C   -1.8522    0.5521    0.0012
H    0.7103    1.0514    0.8706
H    0.6851    1.0322   -0.8929
H   -0.6947   -1.0143    0.9286
H   -0.7002   -1.0671   -0.8346
H    1.8756   -1.1934    0.8723
H    1.8796   -1.1693   -0.9164
H   -1.8648    1.1741   -0.8987
H   -1.8918    1.1888    0.8899
H    3.1670    0.8638   -0.8185
H    3.9297   -0.3624   -0.0057
H    3.1633    0.8375    0.8419
H   -3.9298    0.3612   -0.0297
H   -3.1772   -0.8468    0.8192
H   -3.1520   -0.8563   -0.8412
  